c [MSE2022] -- begin -- [MSE2022]
0.00/0.00	c
0.00/0.00	c NuWLS based on TT-Open-WBO-Inc:	 an Anytime MaxSAT Solver --- based on Glucose4.1 (core version)
0.00/0.00	c Version:	 MaxSAT Evaluation 2021
0.00/0.00	c Author of NuWLS:	 Yi Chu, Xiang He
0.00/0.00	c Author of TT-Open-WBO-Inc:	 Alexander Nadel
0.00/0.00	c Authors of the baseline solver Open-WBO-Inc:	 Saurabh Joshi, Prateek Kumar, Ruben Martins, Sukrut Rao
0.00/0.00	c WARNING: for repeatability, setting FPU to use double precision
0.00/0.00	c |                                                                                                       |
0.00/0.00	c ========================================[ Problem Statistics ]===========================================
0.00/0.00	c |                                                                                                       |
0.00/0.00	c |  Problem Format:             MaxSAT                                                                   |
0.00/0.00	c |  Problem Type:           Unweighted                                                                   |
0.00/0.00	c |  Number of variables:          1165                                                                   |
0.00/0.00	c |  Number of hard clauses:          0                                                                   |
0.00/0.00	c |  Number of soft clauses:       3300                                                                   |
0.00/0.00	c |  Number of cardinality:           0                                                                   |
0.00/0.00	c |  Number of PB :                   0                                                                   |
0.00/0.00	c |  Parse time:                   0.00 s                                                                 |
0.00/0.00	c |                                                                                                       |
0.00/0.00	c | best-alg-selector overriden target_vars_bump_val to 0, since it hadn't been set by the user |
0.00/0.00	c | best-alg-selector overriden ms_model_per_sec_thr to 2, since it hadn't been set by the user |
0.00/0.00	c | best-alg-selector overriden ms_mutation_classes to 0, since it hadn't been set by the user |
0.00/0.00	c | best-alg-selector overriden ms_chrono to 100, since it hadn't been set by the user |
0.00/0.00	c ==========================================[ Solver Settings ]============================================
0.00/0.00	c |                                                                                                       |
0.00/0.00	c |  Algorithm:                     OBV                                                                   |
0.00/0.00	c |  Cardinality Encoding:       Modulo Totalizer                                                         |
0.00/0.00	c |  Limit number conflicts:       1000                                                                   |
0.00/0.00	c |  Limit number iterations: 2147483647                                                                   |
0.00/0.00	c |  Global limit number conflicts:   F                                                                   |
0.00/0.00	c |                                                                                                       |
0.00/0.00	c Mrs. Beaver incomplete stage
0.00/0.00	o 343
0.00/0.00	c total_lit_count 7765
0.00/0.00	c before build neighbor
0.00/0.00	c build instime is 0
0.00/0.00	c using neighbor 
0.00/0.00	c build NuWLS instance done!
0.00/0.00	c changing to NuWLS solver!!!
0.00/0.00	c problem weighted = 0
0.00/0.00	o 343
0.00/0.00	o 339
0.00/0.00	o 336
0.00/0.00	o 333
0.00/0.00	o 330
0.00/0.00	o 327
0.00/0.00	o 324
0.00/0.00	o 322
0.00/0.00	o 320
0.00/0.00	o 318
0.00/0.00	o 316
0.00/0.00	o 314
0.00/0.00	o 312
0.00/0.00	o 310
0.00/0.00	o 308
0.00/0.00	o 306
0.00/0.00	o 304
0.00/0.00	o 302
0.00/0.00	o 300
0.00/0.00	o 299
0.00/0.00	o 298
0.00/0.00	o 297
0.00/0.00	o 296
0.00/0.00	o 295
0.00/0.00	o 294
0.00/0.00	o 293
0.00/0.01	o 292
0.00/0.01	o 291
0.00/0.01	o 290
0.00/0.01	o 289
0.00/0.01	o 288
0.00/0.01	o 287
0.00/0.01	o 286
0.00/0.01	o 285
0.00/0.01	o 284
0.00/0.01	o 283
0.00/0.01	o 282
0.00/0.01	o 281
0.00/0.01	o 280
0.00/0.01	o 279
0.00/0.01	o 278
0.00/0.01	o 277
0.00/0.01	o 276
0.00/0.01	o 275
0.00/0.01	o 274
0.00/0.01	o 273
0.00/0.01	o 272
0.00/0.01	o 271
0.00/0.01	o 270
0.00/0.01	o 269
0.00/0.01	o 268
0.00/0.01	o 267
0.00/0.01	o 266
0.00/0.01	o 265
0.00/0.01	o 264
0.00/0.01	o 263
0.00/0.01	o 262
0.00/0.01	o 261
0.00/0.01	o 260
0.00/0.01	o 259
0.00/0.01	o 258
0.00/0.01	o 257
0.00/0.01	o 256
0.00/0.01	o 254
0.00/0.01	o 253
0.00/0.01	o 252
0.00/0.01	o 251
0.00/0.01	o 250
0.00/0.01	o 249
0.00/0.01	o 248
0.00/0.01	o 247
0.00/0.01	o 246
0.00/0.01	o 245
0.00/0.01	o 244
0.00/0.01	o 243
0.00/0.01	o 242
0.00/0.01	o 241
0.00/0.01	o 240
0.00/0.01	o 239
0.00/0.01	o 238
0.00/0.01	o 237
0.00/0.01	o 236
0.00/0.01	o 235
0.00/0.01	o 234
0.00/0.01	o 233
0.00/0.01	o 232
0.00/0.01	o 231
0.00/0.01	o 230
0.00/0.01	o 229
0.00/0.01	o 228
0.00/0.01	o 227
0.00/0.01	o 226
0.00/0.01	o 225
0.00/0.01	o 224
0.00/0.01	o 223
0.00/0.01	o 222
0.00/0.01	o 221
0.00/0.01	o 220
0.00/0.01	o 219
0.00/0.01	o 218
0.00/0.01	o 217
0.00/0.01	o 216
0.00/0.01	o 215
0.00/0.01	o 214
0.00/0.01	o 213
0.00/0.01	o 212
0.00/0.01	o 211
0.00/0.01	o 210
0.00/0.01	o 209
0.00/0.01	o 208
0.00/0.01	o 207
0.00/0.01	o 206
0.00/0.01	o 205
0.00/0.01	o 204
0.00/0.01	o 203
0.00/0.01	o 202
0.00/0.01	o 201
0.00/0.01	o 200
0.00/0.01	o 199
0.00/0.01	o 198
0.00/0.01	o 197
0.00/0.01	o 196
0.00/0.01	o 195
0.00/0.01	o 194
0.00/0.01	o 193
0.00/0.01	o 192
0.00/0.01	o 191
0.00/0.01	o 190
0.00/0.01	o 189
0.00/0.01	o 188
0.00/0.01	o 187
0.00/0.01	o 186
0.00/0.01	o 185
0.00/0.01	o 184
0.00/0.01	o 183
0.00/0.01	o 182
0.00/0.01	o 181
0.00/0.01	o 180
0.00/0.01	o 179
0.00/0.01	o 178
0.00/0.01	o 177
0.00/0.01	o 176
0.00/0.01	o 175
0.00/0.03	o 174
0.00/0.03	o 173
0.00/0.03	o 172
0.00/0.03	o 170
0.00/0.03	o 169
0.00/0.03	o 168
0.06/0.06	s SATISFIABLE
0.06/0.06	o 168 
0.06/0.06	v 1111110111100111000010100010001101100110000010001100011111101010001001100010000010011100110001110101000110110111101001100100010100010101011101110011000101110101011001001010010110011111101000101100010110111010111100011010110011110110110100000011010010100101110001000010111100100111110001010101000111100001101000101100000001111011001111010100010110000010100111001000101000001011010110101001101100110111111100101101110001100100010000000100101001100000101000101011011000111110010101001111001001100100011110011011100111000101111111101101000011001011111100111101101101011100001000111010111100011110110010101100111001100111110100000101111001000101101100101100100110100100011010001011010101101011100000101001100100000110100000000011001111110111011010011111111001011000101101110100010001110001001101011100001100100000101111001101011001100111000101011101100011110100110010000000000111001111101101000111010100011100000000010101001110100110101011111000111110110111011100101111011111000011110001011000011010100010010101001100001011011100011101000100001101011000011100000110010111111101101101101110101111010101100101101100010100011101100100001001000010010001101011000011100100101
c [MSE2022] -- end -- [MSE2022]
